NAME: map8_r2
TYPE: TSP
COMMENT: autogenerated using a wonderful map creator
DIMENSION: 210
EDGE_WEIGHT_TYPE: EUC_2D
NODE_COORD_SECTION
1 32.0 3.0
2 41.0 61.0
3 41.0 1.0
4 37.0 62.0
5 62.0 15.0
6 61.0 22.0
7 61.0 17.0
8 41.0 62.0
9 38.0 5.0
10 32.0 4.0
11 37.0 1.0
12 47.0 61.0
13 38.0 4.0
14 2.0 21.0
15 34.0 62.0
16 62.0 18.0
17 44.0 63.0
18 34.0 3.0
19 61.0 18.0
20 62.0 21.0
21 42.0 3.0
22 43.0 61.0
23 39.0 3.0
24 63.0 17.0
25 62.0 30.0
26 62.0 27.0
27 40.0 4.0
28 35.0 62.0
29 1.0 16.0
30 39.0 1.0
31 45.0 61.0
32 61.0 21.0
33 62.0 14.0
34 1.0 9.0
35 40.0 63.0
36 35.0 63.0
37 32.0 2.0
38 42.0 62.0
39 35.0 5.0
40 2.0 14.0
41 44.0 1.0
42 62.0 28.0
43 36.0 5.0
44 40.0 3.0
45 41.0 4.0
46 62.0 16.0
47 42.0 63.0
48 63.0 15.0
49 63.0 20.0
50 37.0 5.0
51 34.0 2.0
52 2.0 12.0
53 36.0 3.0
54 36.0 63.0
55 63.0 28.0
56 62.0 25.0
57 63.0 31.0
58 1.0 15.0
59 38.0 61.0
60 1.0 17.0
61 52.0 40.0
62 26.0 30.0
63 27.0 4.0
64 42.0 57.0
65 30.0 9.0
66 45.0 37.0
67 6.0 48.0
68 41.0 15.0
69 37.0 42.0
70 12.0 61.0
71 28.0 51.0
72 8.0 48.0
73 33.0 47.0
74 53.0 25.0
75 46.0 41.0
76 12.0 18.0
77 57.0 59.0
78 22.0 46.0
79 59.0 41.0
80 27.0 36.0
81 15.0 16.0
82 52.0 35.0
83 46.0 34.0
84 45.0 14.0
85 22.0 12.0
86 7.0 30.0
87 25.0 45.0
88 17.0 7.0
89 48.0 40.0
90 56.0 14.0
91 32.0 53.0
92 20.0 33.0
93 58.0 26.0
94 63.0 56.0
95 18.0 51.0
96 44.0 15.0
97 47.0 41.0
98 16.0 26.0
99 36.0 59.0
100 61.0 58.0
101 55.0 8.0
102 1.0 37.0
103 19.0 43.0
104 44.0 51.0
105 38.0 32.0
106 20.0 26.0
107 38.0 41.0
108 23.0 40.0
109 49.0 59.0
110 32.0 18.0
111 6.0 63.0
112 56.0 46.0
113 55.0 56.0
114 26.0 20.0
115 39.0 14.0
116 57.0 29.0
117 28.0 57.0
118 6.0 29.0
119 46.0 47.0
120 23.0 24.0
121 50.0 8.0
122 23.0 33.0
123 7.0 46.0
124 30.0 20.0
125 59.0 38.0
126 24.0 16.0
127 11.0 25.0
128 62.0 9.0
129 34.0 57.0
130 36.0 54.0
131 30.0 38.0
132 9.0 37.0
133 20.0 12.0
134 57.0 31.0
135 48.0 28.0
136 43.0 41.0
137 9.0 9.0
138 44.0 58.0
139 4.0 22.0
140 15.0 52.0
141 23.0 44.0
142 7.0 57.0
143 4.0 40.0
144 10.0 19.0
145 61.0 37.0
146 11.0 18.0
147 25.0 17.0
148 27.0 35.0
149 57.0 15.0
150 8.0 40.0
151 34.0 4.0
152 15.0 27.0
153 2.0 42.0
154 43.0 43.0
155 5.0 59.0
156 52.0 55.0
157 29.0 35.0
158 55.0 17.0
159 6.0 51.0
160 13.0 2.0
161 27.0 19.0
162 34.0 34.0
163 26.0 63.0
164 45.0 34.0
165 56.0 43.0
166 57.0 8.0
167 37.0 48.0
168 47.0 58.0
169 38.0 22.0
170 57.0 35.0
171 28.0 63.0
172 23.0 21.0
173 15.0 38.0
174 24.0 50.0
175 50.0 14.0
176 42.0 10.0
177 16.0 55.0
178 26.0 1.0
179 17.0 29.0
180 30.0 26.0
181 62.0 6.0
182 28.0 47.0
183 58.0 48.0
184 50.0 53.0
185 4.0 10.0
186 12.0 23.0
187 10.0 53.0
188 35.0 52.0
189 42.0 12.0
190 10.0 7.0
191 53.0 42.0
192 37.0 25.0
193 55.0 39.0
194 37.0 43.0
195 34.0 56.0
196 32.0 22.0
197 17.0 49.0
198 32.0 31.0
199 13.0 27.0
200 60.0 56.0
201 13.0 36.0
202 41.0 52.0
203 15.0 33.0
204 61.0 55.0
205 56.0 22.0
206 28.0 15.0
207 44.0 11.0
208 62.0 47.0
209 55.0 41.0
210 45.0 40.0
211 57.0 5.0
212 17.0 33.0
213 46.0 14.0
214 12.0 46.0
215 54.0 61.0
216 43.0 24.0
217 5.0 40.0
218 57.0 23.0
219 26.0 26.0
220 52.0 54.0
221 50.0 2.0
222 2.0 44.0
223 16.0 52.0
224 17.0 17.0
225 34.0 33.0
226 14.0 36.0
227 63.0 57.0
228 34.0 51.0
229 3.0 54.0
230 27.0 48.0
231 55.0 18.0
232 44.0 52.0
233 28.0 10.0
234 29.0 39.0
235 12.0 41.0
236 9.0 33.0
237 24.0 15.0
238 40.0 11.0
239 16.0 11.0
240 35.0 24.0
START_DEPOT_SECTION
1
2
3
4
5
6
7
8
9
10
11
12
13
14
15
16
17
18
19
20
21
22
23
24
25
26
27
28
29
30
-1
END_DEPOT_SECTION
31
32
33
34
35
36
37
38
39
40
41
42
43
44
45
46
47
48
49
50
51
52
53
54
55
56
57
58
59
60
-1
EOF
